(set-option :produce-models true); benchmark generated from python API
(set-info :status unknown)
(declare-fun l_1_0_8 () Real)
(declare-fun l_1_0_7 () Real)
(declare-fun l_1_0_6 () Real)
(declare-fun l_1_0_5 () Real)
(declare-fun l_1_0_4 () Real)
(declare-fun l_1_0_3 () Real)
(declare-fun l_1_0_2 () Real)
(declare-fun l_1_0_11 () Real)
(declare-fun l_1_0_10 () Real)
(declare-fun l_1_0_1 () Real)
(declare-fun _a_0_ () Real)
(declare-fun l_1_0_13 () Real)
(declare-fun l_1_0_12 () Real)
(declare-fun _a_1_ () Real)
(declare-fun l_1_0_9 () Real)
(declare-fun _a_2_ () Real)
(declare-fun l_1_0_14 () Real)
(declare-fun _a_3_ () Real)
(declare-fun _a_4_ () Real)
(declare-fun l_1_1_9 () Real)
(declare-fun l_1_1_6 () Real)
(declare-fun l_1_1_5 () Real)
(declare-fun l_1_1_4 () Real)
(declare-fun l_1_1_3 () Real)
(declare-fun l_1_1_17 () Real)
(declare-fun l_1_1_16 () Real)
(declare-fun l_1_1_14 () Real)
(declare-fun l_1_1_13 () Real)
(declare-fun l_1_1_12 () Real)
(declare-fun l_1_1_11 () Real)
(declare-fun l_1_1_8 () Real)
(declare-fun l_1_1_7 () Real)
(declare-fun l_1_1_2 () Real)
(declare-fun l_1_1_10 () Real)
(declare-fun l_1_1_1 () Real)
(declare-fun l_1_1_20 () Real)
(declare-fun l_1_1_19 () Real)
(declare-fun l_1_1_18 () Real)
(declare-fun l_1_1_15 () Real)
(declare-fun l_1_2_7 () Real)
(declare-fun l_1_2_5 () Real)
(declare-fun l_1_2_4 () Real)
(declare-fun l_1_2_3 () Real)
(declare-fun l_1_2_2 () Real)
(declare-fun l_1_2_17 () Real)
(declare-fun l_1_2_16 () Real)
(declare-fun l_1_2_14 () Real)
(declare-fun l_1_2_13 () Real)
(declare-fun l_1_2_12 () Real)
(declare-fun l_1_2_10 () Real)
(declare-fun l_1_2_9 () Real)
(declare-fun l_1_2_8 () Real)
(declare-fun l_1_2_6 () Real)
(declare-fun l_1_2_11 () Real)
(declare-fun l_1_2_1 () Real)
(declare-fun l_1_2_19 () Real)
(declare-fun l_1_2_18 () Real)
(declare-fun l_1_2_15 () Real)
(declare-fun l_1_2_20 () Real)
(assert
 (let ((?x42 (* (/ 1.0 16.0) l_1_0_6)))
 (let ((?x1543 (* (/ 1.0 4.0) l_1_0_5)))
 (let ((?x1544 (* (/ 1.0 4.0) l_1_0_4)))
 (let ((?x1546 (* l_1_0_11 l_1_0_11)))
 (let ((?x51 (- (- (- _a_0_ (* (/ 1.0 4.0) l_1_0_1)) (* l_1_0_10 l_1_0_10)) ?x1546)))
 (let ((?x40 (- (- (- (- (- (- ?x51 l_1_0_2) l_1_0_3) ?x1544) ?x1543) ?x42) l_1_0_7)))
 (= (- ?x40 l_1_0_8) 0.0))))))))
(assert
 (let ((?x1458 (- (- _a_1_ (* (* 2.0 l_1_0_10) l_1_0_12)) (* (* 2.0 l_1_0_11) l_1_0_13))))
 (= ?x1458 0.0)))
(assert
 (= (- _a_2_ (* (* 2.0 l_1_0_10) l_1_0_9)) 0.0))
(assert
 (let ((?x1368 (* (/ 1.0 2.0) l_1_0_6)))
 (let ((?x1366 (* l_1_0_14 l_1_0_14)))
 (let ((?x1363 (* l_1_0_13 l_1_0_13)))
 (let ((?x890 (+ (- (- (- (+ _a_3_ l_1_0_1) (* l_1_0_12 l_1_0_12)) ?x1363) ?x1366) l_1_0_4)))
 (= (+ (+ ?x890 l_1_0_5) ?x1368) 0.0))))))
(assert
 (let ((?x1341 (* l_1_0_9 l_1_0_9)))
 (let ((?x1368 (* (/ 1.0 2.0) l_1_0_6)))
 (= (- (+ (+ (+ (+ _a_4_ l_1_0_1) l_1_0_4) l_1_0_5) ?x1368) ?x1341) 0.0))))
(assert
 (= (- l_1_0_6) 0.0))
(assert
 (= (* (- 2.0) l_1_0_6) 0.0))
(assert
 (= (- l_1_0_6) 0.0))
(assert
 (= (* (* (- 2.0) l_1_0_12) l_1_0_9) 0.0))
(assert
 (>= l_1_0_1 0.0))
(assert
 (>= l_1_0_2 0.0))
(assert
 (>= l_1_0_3 0.0))
(assert
 (>= l_1_0_4 0.0))
(assert
 (>= l_1_0_5 0.0))
(assert
 (>= l_1_0_6 0.0))
(assert
 (>= l_1_0_7 0.0))
(assert
 (>= l_1_0_8 0.0))
(assert
 (>= l_1_0_9 0.0))
(assert
 (>= l_1_0_11 0.0))
(assert
 (>= l_1_0_14 0.0))
(assert
 (let ((?x1059 (* 9.0 l_1_1_5)))
 (let ((?x1183 (* 3.0 l_1_1_4)))
 (let ((?x55 (* l_1_1_17 l_1_1_17)))
 (let ((?x1180 (* l_1_1_16 l_1_1_16)))
 (let ((?x1178 (* 3.0 l_1_1_13)))
 (let ((?x1175 (* 3.0 l_1_1_11)))
 (let ((?x1171 (* _a_0_ l_1_1_7)))
 (let ((?x1169 (* _a_0_ l_1_1_2)))
 (let ((?x1170 (- (+ (* (- _a_0_) l_1_1_1) (* (* 3.0 _a_0_) l_1_1_10)) ?x1169)))
 (let ((?x1177 (- (+ (+ (- ?x1170 ?x1171) (* (* 3.0 _a_0_) l_1_1_8)) ?x1175) l_1_1_12)))
 (let ((?x1057 (+ (- (- (- (- (+ ?x1177 ?x1178) l_1_1_14) ?x1180) ?x55) l_1_1_3) ?x1183)))
 (let ((?x1065 (+ (- (- (- ?x1057 ?x1059) l_1_1_6) (* (* l_1_1_9 _a_0_) _a_0_)) 1.0)))
 (= ?x1065 0.0))))))))))))))
(assert
 (let ((?x888 (* 6.0 l_1_1_5)))
 (let ((?x903 (* l_1_1_20 l_1_1_20)))
 (let ((?x901 (* l_1_1_19 l_1_1_19)))
 (let ((?x899 (* l_1_1_18 l_1_1_18)))
 (let ((?x956 (* _a_3_ l_1_1_7)))
 (let ((?x896 (- (- (- (* (- _a_3_) l_1_1_1) (* _a_3_ l_1_1_2)) ?x956) (* l_1_1_10 (- _a_0_ (* 3.0 _a_3_))))))
 (let ((?x39 (- (- (- (- (- (- ?x896 l_1_1_11) l_1_1_13) ?x899) ?x901) ?x903) l_1_1_4)))
 (let ((?x28 (- (- (+ ?x39 ?x888) (* l_1_1_8 (- _a_0_ (* 3.0 _a_3_)))) (* l_1_1_9 (+ (* (* 2.0 _a_0_) _a_3_) (* _a_1_ _a_1_))))))
 (= (- ?x28 1.0) 0.0))))))))))
(assert
 (let ((?x573 (* _a_2_ l_1_1_7)))
 (let ((?x571 (* _a_2_ l_1_1_2)))
 (let ((?x290 (* _a_2_ l_1_1_1)))
 (let ((?x521 (+ (- (* (* (* (- 2.0) _a_0_) _a_2_) l_1_1_9) ?x290) (* (* 3.0 _a_2_) l_1_1_10))))
 (let ((?x577 (- (+ (- (- ?x521 ?x571) ?x573) (* (* 3.0 _a_2_) l_1_1_8)) (* (* 2.0 l_1_1_15) l_1_1_16))))
 (= (- ?x577 2.0) 0.0)))))))
(assert
 (let ((?x434 (* _a_1_ l_1_1_7)))
 (let ((?x432 (* _a_1_ l_1_1_2)))
 (let ((?x425 (* _a_1_ l_1_1_1)))
 (let ((?x431 (+ (- (* (* (* (- 2.0) _a_0_) _a_1_) l_1_1_9) ?x425) (* (* 3.0 _a_1_) l_1_1_10))))
 (let ((?x338 (- (+ (- (- ?x431 ?x432) ?x434) (* (* 3.0 _a_1_) l_1_1_8)) (* (* 2.0 l_1_1_16) l_1_1_18))))
 (= (- ?x338 (* (* 2.0 l_1_1_17) l_1_1_19)) 0.0)))))))
(assert
 (let ((?x888 (* 6.0 l_1_1_5)))
 (let ((?x269 (* l_1_1_15 l_1_1_15)))
 (let ((?x10 (* _a_4_ l_1_1_7)))
 (let ((?x267 (- (- (- (* (- _a_4_) l_1_1_1) (* _a_4_ l_1_1_2)) ?x10) (* l_1_1_10 (- _a_0_ (* 3.0 _a_4_))))))
 (let ((?x264 (- (+ (- (- (- (- ?x267 l_1_1_11) l_1_1_13) ?x269) l_1_1_4) ?x888) (* l_1_1_8 (- _a_0_ (* 3.0 _a_4_))))))
 (let ((?x199 (- ?x264 (* l_1_1_9 (+ (* (* 2.0 _a_0_) _a_4_) (* _a_2_ _a_2_))))))
 (= ?x199 0.0))))))))
(assert
 (let ((?x70 (- (- (- (* (- _a_3_) l_1_1_10) (* _a_3_ l_1_1_8)) l_1_1_5) (* (* l_1_1_9 _a_3_) _a_3_))))
 (= ?x70 0.0)))
(assert
 (let ((?x133 (* 2.0 l_1_1_5)))
 (let ((?x131 (- (* (* (* (- 2.0) _a_3_) _a_4_) l_1_1_9) (* l_1_1_10 (+ _a_3_ _a_4_)))))
 (= (- (- ?x131 ?x133) (* l_1_1_8 (+ _a_3_ _a_4_))) 0.0))))
(assert
 (let ((?x708 (- (- (- (* (- _a_4_) l_1_1_10) (* _a_4_ l_1_1_8)) l_1_1_5) (* (* l_1_1_9 _a_4_) _a_4_))))
 (= ?x708 0.0)))
(assert
 (let ((?x293 (* _a_1_ l_1_1_8)))
 (let ((?x350 (* _a_1_ l_1_1_10)))
 (= (- (- (* (* (* (- 2.0) _a_1_) _a_3_) l_1_1_9) ?x350) ?x293) 0.0))))
(assert
 (let ((?x524 (* _a_2_ l_1_1_8)))
 (let ((?x514 (* _a_2_ l_1_1_10)))
 (= (- (- (* (* (* (- 2.0) _a_2_) _a_3_) l_1_1_9) ?x514) ?x524) 0.0))))
(assert
 (let ((?x293 (* _a_1_ l_1_1_8)))
 (let ((?x350 (* _a_1_ l_1_1_10)))
 (= (- (- (* (* (* (- 2.0) _a_1_) _a_4_) l_1_1_9) ?x350) ?x293) 0.0))))
(assert
 (let ((?x524 (* _a_2_ l_1_1_8)))
 (let ((?x514 (* _a_2_ l_1_1_10)))
 (= (- (- (* (* (* (- 2.0) _a_2_) _a_4_) l_1_1_9) ?x514) ?x524) 0.0))))
(assert
 (let ((?x746 (- (* (* (* (- 2.0) _a_1_) _a_2_) l_1_1_9) (* (* 2.0 l_1_1_15) l_1_1_18))))
 (= ?x746 0.0)))
(assert
 (>= l_1_1_1 0.0))
(assert
 (>= l_1_1_2 0.0))
(assert
 (>= l_1_1_3 0.0))
(assert
 (>= l_1_1_4 0.0))
(assert
 (>= l_1_1_5 0.0))
(assert
 (>= l_1_1_6 0.0))
(assert
 (>= l_1_1_7 0.0))
(assert
 (>= l_1_1_8 0.0))
(assert
 (>= l_1_1_9 0.0))
(assert
 (>= l_1_1_10 0.0))
(assert
 (>= l_1_1_11 0.0))
(assert
 (>= l_1_1_12 0.0))
(assert
 (>= l_1_1_13 0.0))
(assert
 (>= l_1_1_14 0.0))
(assert
 (>= l_1_1_15 0.0))
(assert
 (>= l_1_1_17 0.0))
(assert
 (>= l_1_1_20 0.0))
(assert
 (let ((?x555 (* 3.0 l_1_2_3)))
 (let ((?x1445 (* 3.0 l_1_2_2)))
 (let ((?x1438 (* l_1_2_17 l_1_2_17)))
 (let ((?x1447 (* l_1_2_16 l_1_2_16)))
 (let ((?x693 (* 9.0 l_1_2_13)))
 (let ((?x689 (* 3.0 l_1_2_12)))
 (let ((?x1440 (* _a_0_ l_1_2_8)))
 (let ((?x1431 (* _a_0_ l_1_2_6)))
 (let ((?x1448 (- (- (- (* (* (- 3.0) _a_0_) l_1_2_1) (* _a_0_ l_1_2_11)) ?x1431) ?x1440)))
 (let ((?x698 (- (+ (- ?x1448 (* (* 3.0 _a_0_) l_1_2_9)) _a_0_) (* (* l_1_2_10 _a_0_) _a_0_))))
 (let ((?x826 (- (- (- (- (- (- (- ?x698 ?x689) ?x693) l_1_2_14) ?x1447) ?x1438) ?x1445) ?x555)))
 (= (- (- (- ?x826 l_1_2_4) l_1_2_5) l_1_2_7) 0.0)))))))))))))
(assert
 (let ((?x1499 (* (/ 479.0 500.0) _a_2_)))
 (let ((?x589 (* (/ 9.0 10.0) _a_1_)))
 (let ((?x1109 (* _a_1_ l_1_2_8)))
 (let ((?x1103 (* _a_1_ l_1_2_6)))
 (let ((?x1112 (* _a_1_ l_1_2_11)))
 (let ((?x1384 (- (* (* (* (- 2.0) _a_0_) _a_1_) l_1_2_10) (* (* 3.0 _a_1_) l_1_2_1))))
 (let ((?x593 (- (- (- (- ?x1384 ?x1112) ?x1103) ?x1109) (* (* 3.0 _a_1_) l_1_2_9))))
 (let ((?x1396 (- (- (+ (+ ?x593 ?x589) ?x1499) (* (* 2.0 l_1_2_16) l_1_2_18)) (* (* 2.0 l_1_2_17) l_1_2_19))))
 (= ?x1396 0.0))))))))))
(assert
 (let ((?x1277 (* (/ 21.0 200.0) _a_2_)))
 (let ((?x1280 (* _a_2_ l_1_2_8)))
 (let ((?x1278 (* _a_2_ l_1_2_6)))
 (let ((?x1211 (* _a_2_ l_1_2_11)))
 (let ((?x1227 (- (* (* (* (- 2.0) _a_0_) _a_2_) l_1_2_10) (* (* 3.0 _a_2_) l_1_2_1))))
 (let ((?x1271 (- (- (- (- ?x1227 ?x1211) ?x1278) ?x1280) (* (* 3.0 _a_2_) l_1_2_9))))
 (= (- (- ?x1271 ?x1277) (* (* 2.0 l_1_2_15) l_1_2_16)) 0.0))))))))
(assert
 (let ((?x246 (* l_1_2_20 l_1_2_20)))
 (let ((?x248 (* l_1_2_19 l_1_2_19)))
 (let ((?x243 (* l_1_2_18 l_1_2_18)))
 (let ((?x550 (* 6.0 l_1_2_13)))
 (let ((?x232 (* (/ 229441.0 250000.0) _a_4_)))
 (let ((?x504 (* (/ 81.0 100.0) _a_3_)))
 (let ((?x102 (* _a_3_ l_1_2_8)))
 (let ((?x595 (* _a_3_ l_1_2_6)))
 (let ((?x233 (+ (- (- (- (* (- (/ 23.0 100.0)) _a_2_) (* _a_3_ l_1_2_11)) ?x595) ?x102) ?x504)))
 (let ((?x544 (- (- (+ ?x233 ?x232) (* l_1_2_1 (+ (- _a_0_) (* 3.0 _a_3_)))) (* l_1_2_10 (+ (* (* 2.0 _a_0_) _a_3_) (* _a_1_ _a_1_))))))
 (let ((?x247 (- (+ (- (- (+ (+ ?x544 l_1_2_12) ?x550) ?x243) ?x248) l_1_2_2) ?x246)))
 (let ((?x201 (- (+ ?x247 l_1_2_3) (* l_1_2_9 (+ (- _a_0_) (* 3.0 _a_3_))))))
 (= ?x201 0.0))))))))))))))
(assert
 (let ((?x769 (* (/ 10059.0 50000.0) _a_4_)))
 (let ((?x410 (- (- (* (* (* (- 2.0) _a_1_) _a_2_) l_1_2_10) (* (/ 1.0 20.0) _a_2_)) ?x769)))
 (= (- ?x410 (* (* 2.0 l_1_2_15) l_1_2_18)) 0.0))))
(assert
 (let ((?x106 (* (/ 11017.0 25000.0) _a_4_)))
 (let ((?x700 (* (/ 1.0 10.0) _a_2_)))
 (let ((?x1321 (* _a_1_ l_1_2_9)))
 (let ((?x1155 (* _a_1_ l_1_2_1)))
 (let ((?x666 (- (+ (+ (* (* (* (- 2.0) _a_1_) _a_3_) l_1_2_10) ?x1155) ?x1321) ?x700)))
 (= (- ?x666 ?x106) 0.0)))))))
(assert
 (let ((?x165 (* (/ 19.0 400.0) _a_4_)))
 (let ((?x1450 (* _a_2_ l_1_2_9)))
 (let ((?x489 (* _a_2_ l_1_2_1)))
 (let ((?x169 (- (+ (+ (* (* (* (- 2.0) _a_2_) _a_3_) l_1_2_10) ?x489) ?x1450) ?x165)))
 (= ?x169 0.0))))))
(assert
 (let ((?x1485 (* (/ 1387.0 10000.0) _a_4_)))
 (let ((?x1389 (* _a_3_ l_1_2_9)))
 (let ((?x640 (* _a_3_ l_1_2_1)))
 (let ((?x448 (+ ?x640 ?x1389)))
 (= (- (- (- ?x448 ?x1485) (* (* l_1_2_10 _a_3_) _a_3_)) l_1_2_13) 0.0))))))
(assert
 (let ((?x534 (* l_1_2_15 l_1_2_15)))
 (let ((?x550 (* 6.0 l_1_2_13)))
 (let ((?x1106 (* (/ 441.0 40000.0) _a_4_)))
 (let ((?x1126 (* _a_4_ l_1_2_8)))
 (let ((?x1315 (+ (- (- (* (- _a_4_) l_1_2_11) (* _a_4_ l_1_2_6)) ?x1126) ?x1106)))
 (let ((?x1229 (- (- ?x1315 (* l_1_2_1 (+ (- _a_0_) (* 3.0 _a_4_)))) (* l_1_2_10 (+ (* (* 2.0 _a_0_) _a_4_) (* _a_2_ _a_2_))))))
 (let ((?x967 (- (+ (+ (- (+ (+ ?x1229 l_1_2_12) ?x550) ?x534) l_1_2_2) l_1_2_3) (* l_1_2_9 (+ (- _a_0_) (* 3.0 _a_4_))))))
 (= ?x967 0.0)))))))))
(assert
 (let ((?x1224 (* (/ 21.0 2000.0) _a_4_)))
 (let ((?x1321 (* _a_1_ l_1_2_9)))
 (let ((?x1155 (* _a_1_ l_1_2_1)))
 (let ((?x662 (+ (+ (+ (* (* (* (- 2.0) _a_1_) _a_4_) l_1_2_10) ?x1155) ?x1321) ?x1224)))
 (= ?x662 0.0))))))
(assert
 (= (* (/ 11.0 250.0) _a_4_) 0.0))
(assert
 (= (* (/ 23.0 500.0) _a_4_) 0.0))
(assert
 (let ((?x493 (* 2.0 l_1_2_13)))
 (let ((?x492 (- (+ (* (* (* (- 2.0) _a_3_) _a_4_) l_1_2_10) (* (/ 1.0 400.0) _a_4_)) (* l_1_2_1 (- (- _a_3_) _a_4_)))))
 (= (- (- ?x492 ?x493) (* l_1_2_9 (- (- _a_3_) _a_4_))) 0.0))))
(assert
 (= (* (/ 1.0 100.0) _a_4_) 0.0))
(assert
 (= (* (/ 1.0 100.0) _a_4_) 0.0))
(assert
 (let ((?x1450 (* _a_2_ l_1_2_9)))
 (let ((?x489 (* _a_2_ l_1_2_1)))
 (= (+ (+ (* (* (* (- 2.0) _a_2_) _a_4_) l_1_2_10) ?x489) ?x1450) 0.0))))
(assert
 (let ((?x616 (* _a_4_ l_1_2_9)))
 (let ((?x416 (* _a_4_ l_1_2_1)))
 (let ((?x1353 (+ ?x416 ?x616)))
 (= (- (- ?x1353 (* (* l_1_2_10 _a_4_) _a_4_)) l_1_2_13) 0.0)))))
(assert
 (>= l_1_2_1 0.0))
(assert
 (>= l_1_2_2 0.0))
(assert
 (>= l_1_2_3 0.0))
(assert
 (>= l_1_2_4 0.0))
(assert
 (>= l_1_2_5 0.0))
(assert
 (>= l_1_2_6 0.0))
(assert
 (>= l_1_2_7 0.0))
(assert
 (>= l_1_2_8 0.0))
(assert
 (>= l_1_2_9 0.0))
(assert
 (>= l_1_2_10 0.0))
(assert
 (>= l_1_2_11 0.0))
(assert
 (>= l_1_2_12 0.0))
(assert
 (>= l_1_2_13 0.0))
(assert
 (>= l_1_2_14 0.0))
(assert
 (>= l_1_2_15 0.0))
(assert
 (>= l_1_2_17 0.0))
(assert
 (>= l_1_2_20 0.0))
(check-sat)
(get-model)